language ESSENCE' 1.0

letting jobs = 102
letting horizon = 813
letting resourcesRenew = 2
letting resourcesNonrenew = 2
letting resourceLimits = [55, 47, 569, 578]
letting successors = [[2, 3, 4, 5, 6, 7, 8, 9, 10, 11, 12, 13, 14, 15, 16, 19, 20, 21, 22, 23, 25, 26, 27, 28, 30, 32, 39, 41, 43, 50], [101, 75, 73, 72, 66, 63, 59, 51, 48, 40, 34, 33, 29, 18], [100, 97, 73, 72, 64, 61, 60, 58, 57, 47, 46, 45, 44, 36, 24], [75, 73, 72, 57, 56, 55, 54, 53, 40, 37, 35, 33, 31], [100, 74, 73, 71, 70, 67, 57, 56, 52, 48, 40, 17], [100, 92, 73, 72, 62, 59, 57, 55, 40, 29], [99, 95, 91, 90, 73, 72, 71, 70, 65, 64, 62, 54, 47, 42], [100, 99, 96, 95, 92, 88, 70, 65, 64, 63, 62, 59, 58, 56, 37], [100, 99, 96, 94, 93, 90, 89, 88, 86, 79, 75, 74, 73, 70, 69, 64, 63, 62, 60, 51], [99, 98, 97, 95, 94, 93, 92, 89, 87, 72, 70, 62, 59, 55, 45, 38], [99, 96, 94, 91, 88, 75, 71, 67, 64, 63, 62, 56, 55, 37], [98, 96, 94, 93, 91, 88, 71, 69, 64, 56, 55, 52, 33], [99, 98, 97, 95, 92, 91, 89, 87, 82, 72, 71, 69, 68, 63, 62, 55, 54], [98, 97, 95, 94, 93, 92, 89, 87, 82, 68, 64, 62, 57, 55, 38], [98, 95, 92, 91, 87, 86, 77, 76, 74, 73, 72, 71, 69, 68, 67, 66, 59, 54], [101, 96, 95, 92, 91, 89, 87, 79, 73, 72, 71, 70, 62, 45], [96, 94, 93, 92, 91, 89, 87, 72, 65, 64, 63, 59, 45], [98, 96, 91, 89, 88, 84, 64, 60, 55, 49, 45], [98, 94, 93, 92, 89, 86, 73, 69, 64, 59, 35], [99, 97, 95, 92, 88, 71, 63, 55, 37], [101, 100, 97, 95, 93, 91, 90, 87, 86, 84, 82, 78, 77, 76, 72, 71, 69, 68, 65, 64], [100, 91, 87, 86, 82, 78, 72, 69, 68, 64, 63, 62, 56, 53], [94, 93, 92, 90, 89, 88, 87, 85, 78, 76, 71, 70, 69, 68, 65, 59, 55], [99, 98, 95, 93, 89, 69, 63, 62, 42], [97, 92, 89, 72, 70, 64, 62, 59, 45], [100, 99, 95, 91, 90, 89, 88, 86, 84, 82, 78, 73, 71, 69, 68, 57], [95, 94, 93, 91, 89, 88, 87, 84, 79, 70, 45], [98, 94, 90, 89, 86, 77, 68, 64, 59, 44], [97, 96, 95, 94, 93, 91, 89, 88, 87, 86, 78, 77, 76, 71, 70, 69, 68, 64], [94, 91, 89, 87, 86, 84, 82, 71, 70, 69, 68, 57], [101, 100, 93, 87, 85, 78, 76, 70, 47], [92, 91, 87, 86, 85, 82, 79, 77, 76, 75, 72, 69, 68], [100, 99, 92, 90, 89, 83, 82, 78, 77, 68, 65, 62], [89, 84, 54, 45], [95, 91, 90, 87, 85, 82, 80, 78, 77, 76, 70, 68, 63], [96, 94, 88, 86, 85, 83, 81, 67, 62, 56], [93, 89, 87, 84, 45], [91, 90, 88, 86, 85, 81, 79, 78, 77, 76, 69, 63], [101, 94, 92, 87, 86, 82, 71, 70, 62, 56], [98, 88, 79, 45], [97, 96, 93, 87, 85, 84, 80, 78, 77, 76, 71, 68], [94, 92, 88, 87, 85, 83, 82, 77, 76, 68, 66], [99, 94, 91, 90, 88, 82, 77, 76, 68, 65], [91, 87, 82, 81, 79, 78, 76, 69, 63], [90, 86, 85, 82, 78, 77, 76, 69, 68], [98, 95, 88, 82, 81, 76, 55], [89, 83, 81, 77, 69, 59], [97, 95, 89, 82, 79, 77, 62], [92, 83, 77, 76, 74, 65], [101, 97, 83, 82, 79, 77, 76], [95, 91, 84, 82, 78, 68], [92, 83, 80, 77, 62], [97, 94, 92, 81, 80, 76], [96, 93, 85, 81, 78], [86, 80, 79, 77], [84, 79, 77, 76], [85, 79, 77, 76], [101, 79, 78, 76], [84, 82, 79], [87, 78, 77], [96, 85, 80], [84, 76], [84, 83], [85, 83], [80, 79], [79, 78], [82, 78], [81], [80], [83], [83], [88], [83], [78], [78], [102], [102], [102], [102], [102], [102], [102], [102], [102], [102], [102], [102], [102], [102], [102], [102], [102], [102], [102], [102], [102], [102], [102], [102], [102], [102], []]
letting durations = [[0], [3, 7, 8], [1, 3, 6], [3, 4, 5], [2, 9, 10], [1, 2, 9], [3, 4, 7], [4, 6, 9], [2, 3, 7], [5, 8, 9], [5, 7, 8], [2, 7, 10], [4, 5, 6], [7, 8, 10], [3, 4, 7], [6, 7, 9], [4, 8, 10], [1, 7, 9], [2, 4, 6], [2, 8, 10], [1, 3, 4], [4, 6, 7], [4, 7, 10], [2, 7, 8], [4, 5, 9], [1, 6, 9], [1, 2, 10], [3, 6, 10], [2, 5, 10], [2, 5, 8], [8, 9, 10], [1, 3, 4], [1, 7, 8], [2, 5, 8], [1, 2, 10], [2, 3, 4], [3, 6, 8], [2, 4, 7], [3, 6, 8], [5, 6, 7], [2, 7, 8], [5, 6, 7], [4, 7, 10], [7, 8, 9], [6, 7, 8], [3, 7, 8], [3, 4, 6], [4, 7, 9], [3, 4, 9], [2, 3, 7], [1, 5, 8], [3, 4, 8], [5, 8, 9], [4, 5, 9], [4, 6, 9], [7, 8, 10], [4, 5, 9], [1, 3, 9], [5, 7, 8], [2, 6, 9], [3, 5, 6], [1, 2, 9], [4, 7, 9], [3, 7, 9], [1, 4, 8], [1, 5, 8], [1, 5, 6], [3, 5, 9], [6, 7, 10], [6, 9, 10], [2, 7, 8], [6, 7, 8], [2, 4, 5], [5, 6, 7], [2, 4, 9], [2, 3, 7], [3, 6, 9], [5, 6, 8], [3, 7, 8], [1, 2, 8], [6, 8, 10], [1, 2, 5], [2, 3, 10], [5, 8, 9], [4, 9, 10], [6, 9, 10], [1, 2, 4], [2, 3, 5], [4, 7, 10], [1, 4, 7], [3, 7, 8], [2, 6, 10], [2, 6, 7], [2, 5, 6], [1, 3, 5], [1, 3, 8], [4, 8, 10], [6, 9, 10], [5, 6, 7], [7, 8, 10], [6, 7, 8], [0]]
letting resourceUsage = [[[0, 0, 0, 0]], [[2, 3, 6, 3], [2, 3, 6, 2], [2, 2, 2, 2]], [[2, 2, 6, 9], [1, 2, 5, 5], [1, 2, 4, 3]], [[4, 3, 4, 9], [4, 3, 4, 8], [3, 3, 4, 7]], [[3, 3, 7, 6], [3, 3, 6, 5], [3, 3, 6, 3]], [[3, 4, 9, 5], [2, 3, 7, 4], [1, 3, 5, 4]], [[4, 3, 7, 9], [3, 3, 7, 7], [3, 1, 4, 2]], [[3, 5, 3, 8], [1, 3, 2, 8], [1, 2, 2, 7]], [[5, 2, 7, 7], [2, 1, 6, 7], [1, 1, 3, 7]], [[3, 4, 8, 5], [3, 3, 3, 4], [3, 2, 3, 4]], [[3, 2, 7, 9], [3, 2, 7, 8], [1, 2, 7, 7]], [[3, 1, 8, 9], [3, 1, 8, 8], [3, 1, 6, 9]], [[4, 2, 1, 2], [3, 2, 1, 1], [1, 1, 1, 1]], [[4, 5, 2, 6], [3, 4, 1, 3], [1, 4, 1, 2]], [[4, 3, 6, 5], [2, 2, 6, 5], [2, 2, 3, 5]], [[2, 3, 1, 9], [1, 3, 1, 6], [1, 3, 1, 3]], [[2, 4, 4, 2], [2, 3, 4, 1], [2, 3, 1, 1]], [[5, 4, 6, 7], [4, 4, 4, 7], [4, 4, 3, 5]], [[4, 2, 9, 7], [4, 2, 7, 7], [4, 2, 6, 7]], [[4, 3, 9, 6], [3, 2, 8, 3], [2, 1, 7, 3]], [[3, 2, 3, 6], [2, 2, 3, 4], [1, 2, 3, 4]], [[1, 3, 9, 8], [1, 3, 6, 6], [1, 3, 4, 6]], [[4, 3, 3, 7], [2, 3, 3, 6], [1, 1, 1, 5]], [[4, 1, 3, 7], [3, 1, 1, 7], [2, 1, 1, 7]], [[5, 4, 5, 6], [4, 4, 4, 5], [3, 3, 4, 3]], [[4, 2, 2, 10], [3, 1, 2, 8], [1, 1, 2, 7]], [[4, 4, 3, 7], [4, 3, 2, 5], [4, 2, 1, 2]], [[4, 5, 7, 6], [3, 3, 7, 5], [1, 2, 7, 5]], [[5, 5, 5, 10], [5, 5, 4, 8], [5, 5, 2, 7]], [[5, 1, 7, 3], [2, 1, 5, 3], [2, 1, 3, 1]], [[5, 3, 4, 3], [4, 2, 4, 3], [4, 2, 4, 2]], [[3, 2, 9, 3], [3, 1, 9, 1], [3, 1, 8, 1]], [[1, 4, 9, 10], [1, 2, 5, 8], [1, 1, 3, 8]], [[5, 2, 9, 7], [4, 1, 8, 6], [2, 1, 4, 3]], [[4, 4, 9, 10], [4, 4, 7, 8], [3, 4, 3, 4]], [[5, 2, 5, 6], [4, 2, 5, 4], [4, 2, 5, 3]], [[5, 3, 3, 4], [3, 1, 3, 3], [2, 1, 3, 3]], [[3, 2, 7, 7], [2, 1, 5, 6], [2, 1, 3, 3]], [[5, 3, 9, 5], [2, 2, 9, 4], [2, 1, 9, 3]], [[5, 3, 4, 7], [5, 2, 4, 7], [5, 2, 3, 5]], [[2, 1, 7, 4], [1, 1, 7, 4], [1, 1, 4, 2]], [[4, 4, 9, 3], [4, 2, 8, 2], [3, 2, 5, 1]], [[4, 5, 7, 8], [2, 5, 6, 6], [1, 5, 4, 4]], [[5, 4, 6, 3], [4, 4, 4, 2], [4, 3, 4, 2]], [[2, 3, 9, 8], [1, 3, 5, 7], [1, 2, 2, 6]], [[5, 1, 8, 5], [3, 1, 7, 5], [3, 1, 7, 4]], [[2, 3, 5, 3], [2, 1, 3, 2], [2, 1, 3, 1]], [[5, 3, 5, 3], [5, 3, 3, 2], [5, 3, 2, 2]], [[5, 4, 5, 5], [4, 2, 4, 5], [4, 2, 2, 5]], [[4, 4, 8, 4], [4, 2, 7, 2], [4, 2, 6, 2]], [[3, 5, 9, 9], [2, 4, 6, 5], [1, 4, 4, 2]], [[5, 3, 7, 7], [5, 2, 7, 5], [5, 2, 7, 4]], [[4, 4, 5, 3], [2, 4, 4, 3], [2, 4, 4, 2]], [[5, 5, 6, 6], [4, 3, 5, 5], [3, 1, 4, 5]], [[4, 5, 9, 8], [3, 3, 8, 5], [1, 3, 4, 4]], [[2, 2, 2, 8], [2, 2, 2, 7], [2, 2, 2, 5]], [[3, 4, 4, 4], [2, 4, 2, 2], [1, 4, 2, 2]], [[3, 4, 4, 4], [3, 4, 3, 4], [3, 4, 3, 3]], [[4, 3, 6, 7], [2, 3, 5, 3], [2, 3, 5, 2]], [[2, 4, 6, 6], [2, 4, 6, 5], [2, 2, 6, 4]], [[3, 3, 10, 10], [2, 3, 9, 6], [2, 3, 8, 5]], [[4, 5, 6, 6], [2, 4, 4, 5], [2, 3, 3, 4]], [[1, 2, 8, 10], [1, 2, 5, 7], [1, 1, 3, 6]], [[3, 3, 5, 10], [3, 3, 2, 9], [2, 3, 2, 9]], [[5, 3, 9, 4], [5, 1, 9, 4], [5, 1, 9, 2]], [[3, 2, 7, 9], [2, 1, 7, 7], [2, 1, 6, 6]], [[4, 4, 9, 5], [3, 3, 7, 5], [2, 3, 4, 3]], [[3, 5, 10, 8], [3, 3, 9, 7], [3, 3, 8, 7]], [[1, 5, 7, 7], [1, 4, 7, 7], [1, 3, 7, 7]], [[2, 3, 10, 9], [2, 2, 8, 8], [1, 2, 6, 8]], [[3, 3, 4, 6], [3, 3, 4, 3], [2, 1, 2, 1]], [[5, 1, 1, 5], [4, 1, 1, 5], [4, 1, 1, 3]], [[4, 2, 7, 10], [2, 2, 7, 9], [2, 2, 7, 8]], [[5, 5, 10, 8], [4, 5, 6, 6], [4, 5, 5, 5]], [[3, 3, 5, 5], [2, 3, 4, 2], [2, 3, 4, 1]], [[3, 1, 8, 6], [3, 1, 7, 6], [3, 1, 7, 5]], [[5, 3, 2, 7], [4, 3, 2, 7], [3, 2, 2, 7]], [[1, 1, 9, 4], [1, 1, 9, 3], [1, 1, 8, 2]], [[5, 2, 4, 8], [2, 1, 4, 6], [2, 1, 4, 1]], [[1, 5, 4, 8], [1, 4, 3, 6], [1, 4, 3, 5]], [[2, 5, 10, 7], [1, 4, 10, 5], [1, 3, 10, 1]], [[3, 4, 5, 3], [3, 4, 4, 2], [2, 3, 4, 1]], [[3, 5, 8, 7], [2, 3, 7, 4], [1, 2, 6, 2]], [[3, 3, 3, 3], [1, 3, 3, 1], [1, 1, 2, 1]], [[3, 4, 7, 7], [2, 3, 7, 6], [1, 3, 7, 5]], [[3, 4, 7, 9], [2, 2, 7, 4], [1, 2, 6, 3]], [[3, 3, 1, 2], [2, 3, 1, 2], [1, 3, 1, 2]], [[4, 1, 4, 8], [4, 1, 3, 5], [4, 1, 3, 3]], [[4, 1, 3, 8], [4, 1, 2, 7], [3, 1, 1, 7]], [[5, 2, 4, 9], [5, 1, 4, 8], [5, 1, 3, 7]], [[5, 2, 9, 4], [4, 1, 8, 2], [4, 1, 6, 2]], [[5, 3, 5, 4], [5, 3, 5, 3], [5, 3, 4, 3]], [[4, 3, 6, 7], [3, 3, 3, 7], [3, 3, 2, 5]], [[2, 4, 7, 10], [1, 3, 6, 9], [1, 3, 5, 9]], [[4, 2, 9, 3], [3, 1, 8, 3], [1, 1, 8, 2]], [[3, 3, 9, 7], [2, 3, 9, 5], [2, 3, 9, 4]], [[3, 1, 9, 8], [1, 1, 7, 6], [1, 1, 7, 5]], [[2, 3, 8, 8], [1, 2, 4, 5], [1, 1, 4, 4]], [[4, 5, 7, 6], [3, 5, 7, 4], [2, 5, 4, 2]], [[5, 3, 3, 8], [5, 3, 3, 7], [5, 3, 3, 5]], [[5, 4, 9, 3], [3, 2, 7, 2], [3, 2, 3, 2]], [[0, 0, 0, 0]]]
